
Gurobi 7.0.2 (win64, Python) logging started 03/11/17 21:02:49

Optimize a model with 960 rows, 17993 columns and 36420 nonzeros
Variable types: 0 continuous, 17993 integer (17993 binary)
Coefficient statistics:
  Matrix range     [1e+00, 1e+04]
  Objective range  [4e-01, 3e+02]
  Bounds range     [1e+00, 1e+00]
  RHS range        [1e+00, 5e+01]
Found heuristic solution: objective 12486
Presolve removed 588 rows and 14924 columns
Presolve time: 0.09s
Presolved: 372 rows, 3069 columns, 6138 nonzeros
Found heuristic solution: objective 4914.9782945
Variable types: 0 continuous, 3069 integer (3069 binary)

Root relaxation: objective 2.847133e+03, 85 iterations, 0.00 seconds

    Nodes    |    Current Node    |     Objective Bounds      |     Work
 Expl Unexpl |  Obj  Depth IntInf | Incumbent    BestBd   Gap | It/Node Time

*    0     0               0    2847.1327781 2847.13278  0.00%     -    0s

Explored 0 nodes (85 simplex iterations) in 0.13 seconds
Thread count was 4 (of 4 available processors)

Solution count 3: 2847.13 4914.98 6433.98 
Pool objective bound 2847.13

Optimal solution found (tolerance 1.00e-04)
Best objective 2.847132778110e+03, best bound 2.847132778110e+03, gap 0.0000%

Gurobi 7.0.2 (win64, Python) logging started 03/11/17 22:47:55

Optimize a model with 960 rows, 17391 columns and 35216 nonzeros
Variable types: 0 continuous, 17391 integer (17391 binary)
Coefficient statistics:
  Matrix range     [1e+00, 1e+04]
  Objective range  [1e+00, 3e+02]
  Bounds range     [1e+00, 1e+00]
  RHS range        [1e+00, 5e+01]
Found heuristic solution: objective 12815.8
Presolve removed 16 rows and 288 columns
Presolve time: 0.08s
Presolved: 944 rows, 17103 columns, 34632 nonzeros
Variable types: 0 continuous, 17103 integer (17103 binary)

Root relaxation: objective 3.278399e+03, 198 iterations, 0.00 seconds

    Nodes    |    Current Node    |     Objective Bounds      |     Work
 Expl Unexpl |  Obj  Depth IntInf | Incumbent    BestBd   Gap | It/Node Time

     0     0 3278.39936    0    7 12815.8314 3278.39936  74.4%     -    0s
H    0     0                    3574.2121541 3278.39936  8.28%     -    0s
H    0     0                    3527.5071727 3278.39936  7.06%     -    0s
     0     0 3278.39936    0    5 3527.50717 3278.39936  7.06%     -    0s
     0     0 3278.39936    0    5 3527.50717 3278.39936  7.06%     -    0s
     0     0 3278.39936    0    5 3527.50717 3278.39936  7.06%     -    0s
     0     0 3278.87528    0    9 3527.50717 3278.87528  7.05%     -    0s
     0     0 3318.09861    0   11 3527.50717 3318.09861  5.94%     -    0s
H    0     0                    3349.8213820 3318.09861  0.95%     -    0s
     0     0 3324.72157    0    5 3349.82138 3324.72157  0.75%     -    0s
     0     0 3337.54332    0   15 3349.82138 3337.54332  0.37%     -    0s
H    0     0                    3337.6905154 3337.54332  0.00%     -    0s

Cutting planes:
  Cover: 24
  Clique: 19
  MIR: 25

Explored 0 nodes (848 simplex iterations) in 0.51 seconds
Thread count was 4 (of 4 available processors)

Solution count 5: 3337.69 3349.82 3527.51 ... 12815.8
Pool objective bound 3337.54

Optimal solution found (tolerance 1.00e-04)
Best objective 3.337690515389e+03, best bound 3.337543324256e+03, gap 0.0044%
Optimize a model with 960 rows, 17391 columns and 35216 nonzeros
Variable types: 0 continuous, 17391 integer (17391 binary)
Coefficient statistics:
  Matrix range     [1e+00, 1e+04]
  Objective range  [1e+00, 3e+02]
  Bounds range     [1e+00, 1e+00]
  RHS range        [1e+00, 5e+01]
Presolved: 944 rows, 17103 columns, 34632 nonzeros

Continuing optimization...


Cutting planes:
  Cover: 24
  Clique: 19
  MIR: 25

Explored 0 nodes (848 simplex iterations) in 0.01 seconds
Thread count was 4 (of 4 available processors)

Solution count 5: 3337.69 3349.82 3527.51 ... 12815.8
Pool objective bound 3337.54

Optimal solution found (tolerance 1.00e-04)
Best objective 3.337690515389e+03, best bound 3.337543324256e+03, gap 0.0044%

Gurobi 7.0.2 (win64, Python) logging started 03/11/17 23:09:22

Optimize a model with 960 rows, 17773 columns and 35980 nonzeros
Variable types: 0 continuous, 17773 integer (17773 binary)
Coefficient statistics:
  Matrix range     [1e+00, 1e+04]
  Objective range  [8e-01, 3e+02]
  Bounds range     [1e+00, 1e+00]
  RHS range        [1e+00, 5e+01]
Found heuristic solution: objective 14396.8
Presolve removed 28 rows and 504 columns
Presolve time: 0.09s
Presolved: 932 rows, 17269 columns, 34958 nonzeros
Variable types: 0 continuous, 17269 integer (17269 binary)

Root relaxation: objective 2.681864e+03, 200 iterations, 0.00 seconds

    Nodes    |    Current Node    |     Objective Bounds      |     Work
 Expl Unexpl |  Obj  Depth IntInf | Incumbent    BestBd   Gap | It/Node Time

     0     0 2681.86412    0   12 14396.7646 2681.86412  81.4%     -    0s
H    0     0                    3120.4575944 2681.86412  14.1%     -    0s
H    0     0                    3032.8453808 2681.86412  11.6%     -    0s
H    0     0                    2973.7478767 2681.86412  9.82%     -    0s
     0     0 2681.86412    0    8 2973.74788 2681.86412  9.82%     -    0s
     0     0 2681.86412    0    8 2973.74788 2681.86412  9.82%     -    0s
     0     0 2723.02498    0    9 2973.74788 2723.02498  8.43%     -    0s
     0     0 2723.38695    0   10 2973.74788 2723.38695  8.42%     -    0s
     0     0 2802.36728    0   14 2973.74788 2802.36728  5.76%     -    0s
     0     0 2804.23384    0   13 2973.74788 2804.23384  5.70%     -    0s
     0     0 2831.93867    0   13 2973.74788 2831.93867  4.77%     -    0s
     0     0 2833.48202    0   12 2973.74788 2833.48202  4.72%     -    0s
     0     0 2868.59873    0   18 2973.74788 2868.59873  3.54%     -    0s
     0     0 2870.00045    0   17 2973.74788 2870.00045  3.49%     -    0s
     0     0 2892.05845    0   25 2973.74788 2892.05845  2.75%     -    0s
H    0     0                    2917.5298653 2892.05845  0.87%     -    0s
     0     0 2898.06412    0   24 2917.52987 2898.06412  0.67%     -    0s
*    0     0               0    2898.0940721 2898.09407  0.00%     -    0s

Cutting planes:
  Cover: 54
  Clique: 12
  MIR: 22
  StrongCG: 3

Explored 0 nodes (850 simplex iterations) in 0.62 seconds
Thread count was 4 (of 4 available processors)

Solution count 6: 2898.09 2917.53 2973.75 ... 14396.8
Pool objective bound 2898.09

Optimal solution found (tolerance 1.00e-04)
Best objective 2.898094072103e+03, best bound 2.898094072103e+03, gap 0.0000%

Gurobi 7.0.2 (win64, Python) logging started 03/11/17 23:10:30

Optimize a model with 960 rows, 17477 columns and 35388 nonzeros
Variable types: 0 continuous, 17477 integer (17477 binary)
Coefficient statistics:
  Matrix range     [1e+00, 1e+04]
  Objective range  [2e+00, 3e+02]
  Bounds range     [1e+00, 1e+00]
  RHS range        [1e+00, 5e+01]
Found heuristic solution: objective 13517.3
Presolve removed 34 rows and 612 columns
Presolve time: 0.09s
Presolved: 926 rows, 16865 columns, 34147 nonzeros
Variable types: 0 continuous, 16865 integer (16865 binary)

Root relaxation: objective 3.056479e+03, 197 iterations, 0.00 seconds

    Nodes    |    Current Node    |     Objective Bounds      |     Work
 Expl Unexpl |  Obj  Depth IntInf | Incumbent    BestBd   Gap | It/Node Time

     0     0 3056.47853    0    5 13517.2879 3056.47853  77.4%     -    0s
H    0     0                    3088.7300009 3056.47853  1.04%     -    0s
     0     0 3056.47853    0    3 3088.73000 3056.47853  1.04%     -    0s
     0     0 3056.47853    0    3 3088.73000 3056.47853  1.04%     -    0s
     0     0 3087.71409    0   11 3088.73000 3087.71409  0.03%     -    0s

Cutting planes:
  Cover: 10
  Clique: 14
  MIR: 4

Explored 0 nodes (785 simplex iterations) in 0.37 seconds
Thread count was 4 (of 4 available processors)

Solution count 2: 3088.73 13517.3 
Pool objective bound 3088.73

Optimal solution found (tolerance 1.00e-04)
Best objective 3.088730000850e+03, best bound 3.088730000850e+03, gap 0.0000%

Gurobi 7.0.2 (win64, Python) logging started 03/11/17 23:15:12

Optimize a model with 960 rows, 17637 columns and 35708 nonzeros
Variable types: 0 continuous, 17637 integer (17637 binary)
Coefficient statistics:
  Matrix range     [1e+00, 1e+04]
  Objective range  [2e+00, 3e+02]
  Bounds range     [1e+00, 1e+00]
  RHS range        [1e+00, 5e+01]
Found heuristic solution: objective 13926.1
Presolve removed 16 rows and 288 columns
Presolve time: 0.09s
Presolved: 944 rows, 17349 columns, 35124 nonzeros
Variable types: 0 continuous, 17349 integer (17349 binary)

Root relaxation: objective 2.768188e+03, 188 iterations, 0.00 seconds

    Nodes    |    Current Node    |     Objective Bounds      |     Work
 Expl Unexpl |  Obj  Depth IntInf | Incumbent    BestBd   Gap | It/Node Time

     0     0 2768.18800    0    2 13926.0645 2768.18800  80.1%     -    0s
H    0     0                    2768.1879987 2768.18800  0.00%     -    0s

Explored 0 nodes (443 simplex iterations) in 0.17 seconds
Thread count was 4 (of 4 available processors)

Solution count 2: 2768.19 13926.1 
Pool objective bound 2768.19

Optimal solution found (tolerance 1.00e-04)
Best objective 2.768187998733e+03, best bound 2.768187998733e+03, gap 0.0000%
Optimize a model with 998 rows, 17637 columns and 35822 nonzeros
Variable types: 0 continuous, 17637 integer (17637 binary)
Coefficient statistics:
  Matrix range     [1e+00, 1e+04]
  Objective range  [2e+00, 3e+02]
  Bounds range     [1e+00, 1e+00]
  RHS range        [1e+00, 5e+01]
Found heuristic solution: objective 13926.1
Presolve removed 16 rows and 288 columns
Presolve time: 0.09s
Presolved: 982 rows, 17349 columns, 35238 nonzeros

MIP start did not produce a new incumbent solution
MIP start violates constraint R960 by 1.000000000

Variable types: 0 continuous, 17349 integer (17349 binary)

Root relaxation: objective 2.770122e+03, 221 iterations, 0.00 seconds

    Nodes    |    Current Node    |     Objective Bounds      |     Work
 Expl Unexpl |  Obj  Depth IntInf | Incumbent    BestBd   Gap | It/Node Time

     0     0 2770.12157    0    4 13926.0645 2770.12157  80.1%     -    0s
H    0     0                    2770.1215658 2770.12157  0.00%     -    0s

Explored 0 nodes (368 simplex iterations) in 0.14 seconds
Thread count was 4 (of 4 available processors)

Solution count 2: 2770.12 13926.1 
Pool objective bound 2770.12

Optimal solution found (tolerance 1.00e-04)
Best objective 2.770121565805e+03, best bound 2.770121565805e+03, gap 0.0000%
Optimize a model with 1005 rows, 17637 columns and 35843 nonzeros
Variable types: 0 continuous, 17637 integer (17637 binary)
Coefficient statistics:
  Matrix range     [1e+00, 1e+04]
  Objective range  [2e+00, 3e+02]
  Bounds range     [1e+00, 1e+00]
  RHS range        [1e+00, 5e+01]
Found heuristic solution: objective 13926.1
Presolve removed 16 rows and 288 columns
Presolve time: 0.09s
Presolved: 989 rows, 17349 columns, 35259 nonzeros

MIP start did not produce a new incumbent solution
MIP start violates constraint R998 by 1.000000000

Variable types: 0 continuous, 17349 integer (17349 binary)

Root relaxation: objective 2.770891e+03, 228 iterations, 0.00 seconds

    Nodes    |    Current Node    |     Objective Bounds      |     Work
 Expl Unexpl |  Obj  Depth IntInf | Incumbent    BestBd   Gap | It/Node Time

*    0     0               0    2770.8906306 2770.89063  0.00%     -    0s

Explored 0 nodes (309 simplex iterations) in 0.13 seconds
Thread count was 4 (of 4 available processors)

Solution count 2: 2770.89 13926.1 
Pool objective bound 2770.89

Optimal solution found (tolerance 1.00e-04)
Best objective 2.770890630612e+03, best bound 2.770890630612e+03, gap 0.0000%
Optimize a model with 1005 rows, 17637 columns and 35843 nonzeros
Variable types: 0 continuous, 17637 integer (17637 binary)
Coefficient statistics:
  Matrix range     [1e+00, 1e+04]
  Objective range  [2e+00, 3e+02]
  Bounds range     [1e+00, 1e+00]
  RHS range        [1e+00, 5e+01]
Presolved: 989 rows, 17349 columns, 35259 nonzeros

Continuing optimization...


Explored 0 nodes (309 simplex iterations) in 0.01 seconds
Thread count was 4 (of 4 available processors)

Solution count 2: 2770.89 13926.1 
Pool objective bound 2770.89

Optimal solution found (tolerance 1.00e-04)
Best objective 2.770890630612e+03, best bound 2.770890630612e+03, gap 0.0000%

Gurobi 7.0.2 (win64, Python) logging started 03/11/17 23:24:56

Optimize a model with 960 rows, 17413 columns and 35260 nonzeros
Variable types: 0 continuous, 17413 integer (17413 binary)
Coefficient statistics:
  Matrix range     [1e+00, 1e+04]
  Objective range  [1e+00, 3e+02]
  Bounds range     [1e+00, 1e+00]
  RHS range        [1e+00, 5e+01]
Found heuristic solution: objective 14843.8
Presolve removed 16 rows and 288 columns
Presolve time: 0.09s
Presolved: 944 rows, 17125 columns, 34676 nonzeros
Variable types: 0 continuous, 17125 integer (17125 binary)

Root relaxation: objective 2.698645e+03, 195 iterations, 0.00 seconds

    Nodes    |    Current Node    |     Objective Bounds      |     Work
 Expl Unexpl |  Obj  Depth IntInf | Incumbent    BestBd   Gap | It/Node Time

     0     0 2698.64480    0    8 14843.7780 2698.64480  81.8%     -    0s
H    0     0                    2900.0417763 2698.64480  6.94%     -    0s
H    0     0                    2884.5249226 2698.64480  6.44%     -    0s
H    0     0                    2810.3939571 2698.64480  3.98%     -    0s
     0     0 2698.64480    0    4 2810.39396 2698.64480  3.98%     -    0s
     0     0 2698.64480    0    4 2810.39396 2698.64480  3.98%     -    0s
     0     0 2698.64480    0    4 2810.39396 2698.64480  3.98%     -    0s
     0     0 2698.64480    0    4 2810.39396 2698.64480  3.98%     -    0s
     0     0 2698.64480    0    4 2810.39396 2698.64480  3.98%     -    0s
     0     2 2698.64480    0    4 2810.39396 2698.64480  3.98%     -    0s
H   29    16                    2783.0948897 2704.49930  2.82%  10.6    0s

Cutting planes:
  Cover: 22
  Clique: 22
  MIR: 14

Explored 57 nodes (2723 simplex iterations) in 0.74 seconds
Thread count was 4 (of 4 available processors)

Solution count 5: 2783.09 2810.39 2884.52 ... 14843.8
Pool objective bound 2783.09

Optimal solution found (tolerance 1.00e-04)
Best objective 2.783094889710e+03, best bound 2.783094889710e+03, gap 0.0000%
Optimize a model with 1002 rows, 17413 columns and 35386 nonzeros
Variable types: 0 continuous, 17413 integer (17413 binary)
Coefficient statistics:
  Matrix range     [1e+00, 1e+04]
  Objective range  [1e+00, 3e+02]
  Bounds range     [1e+00, 1e+00]
  RHS range        [1e+00, 5e+01]
Found heuristic solution: objective 14324.1
Presolve removed 16 rows and 288 columns
Presolve time: 0.09s
Presolved: 986 rows, 17125 columns, 34802 nonzeros

MIP start did not produce a new incumbent solution
MIP start violates constraint R960 by 1.000000000

Variable types: 0 continuous, 17125 integer (17125 binary)

Root relaxation: objective 2.698645e+03, 228 iterations, 0.00 seconds

    Nodes    |    Current Node    |     Objective Bounds      |     Work
 Expl Unexpl |  Obj  Depth IntInf | Incumbent    BestBd   Gap | It/Node Time

     0     0 2698.64480    0    6 14324.1271 2698.64480  81.2%     -    0s
H    0     0                    2999.6655916 2698.64480  10.0%     -    0s
H    0     0                    2830.2543255 2698.64480  4.65%     -    0s
     0     0 2698.64480    0    4 2830.25433 2698.64480  4.65%     -    0s
     0     0 2698.64480    0    4 2830.25433 2698.64480  4.65%     -    0s
     0     0 2698.64480    0    4 2830.25433 2698.64480  4.65%     -    0s
     0     0 2698.64480    0    4 2830.25433 2698.64480  4.65%     -    0s
     0     0 2698.64480    0    4 2830.25433 2698.64480  4.65%     -    0s
     0     1 2698.64480    0    4 2830.25433 2698.64480  4.65%     -    0s
H   28    14                    2783.0948897 2733.19333  1.79%  10.9    0s

Cutting planes:
  Cover: 29
  Clique: 20
  MIR: 13

Explored 56 nodes (1214 simplex iterations) in 0.67 seconds
Thread count was 4 (of 4 available processors)

Solution count 4: 2783.09 2830.25 2999.67 14324.1 
Pool objective bound 2783.09

Optimal solution found (tolerance 1.00e-04)
Best objective 2.783094889710e+03, best bound 2.783094889710e+03, gap 0.0000%
Optimize a model with 1003 rows, 17413 columns and 35389 nonzeros
Variable types: 0 continuous, 17413 integer (17413 binary)
Coefficient statistics:
  Matrix range     [1e+00, 1e+04]
  Objective range  [1e+00, 3e+02]
  Bounds range     [1e+00, 1e+00]
  RHS range        [1e+00, 5e+01]
Found heuristic solution: objective 14324.1
Presolve removed 16 rows and 288 columns
Presolve time: 0.09s
Presolved: 987 rows, 17125 columns, 34805 nonzeros

MIP start did not produce a new incumbent solution
MIP start violates constraint R1002 by 1.000000000

Variable types: 0 continuous, 17125 integer (17125 binary)

Root relaxation: objective 2.698645e+03, 228 iterations, 0.00 seconds

    Nodes    |    Current Node    |     Objective Bounds      |     Work
 Expl Unexpl |  Obj  Depth IntInf | Incumbent    BestBd   Gap | It/Node Time

     0     0 2698.64480    0    6 14324.1271 2698.64480  81.2%     -    0s
H    0     0                    3014.0223058 2698.64480  10.5%     -    0s
H    0     0                    2900.5088777 2698.64480  6.96%     -    0s
H    0     0                    2788.3868846 2698.64480  3.22%     -    0s
     0     0 2698.64480    0    4 2788.38688 2698.64480  3.22%     -    0s
     0     0 2698.64480    0    4 2788.38688 2698.64480  3.22%     -    0s
     0     0 2698.64480    0    4 2788.38688 2698.64480  3.22%     -    0s
     0     0 2698.64480    0    4 2788.38688 2698.64480  3.22%     -    0s
     0     0 2698.64480    0    4 2788.38688 2698.64480  3.22%     -    0s
H    0     0                    2783.0948897 2698.64480  3.03%     -    0s
     0     0     cutoff    0      2783.09489 2783.09489  0.00%     -    0s

Explored 0 nodes (988 simplex iterations) in 0.53 seconds
Thread count was 4 (of 4 available processors)

Solution count 6: 2783.09 2783.09 2788.39 ... 14324.1
Pool objective bound 2783.09

Optimal solution found (tolerance 1.00e-04)
Best objective 2.783094889710e+03, best bound 2.783094889710e+03, gap 0.0000%
Optimize a model with 1004 rows, 17413 columns and 35392 nonzeros
Variable types: 0 continuous, 17413 integer (17413 binary)
Coefficient statistics:
  Matrix range     [1e+00, 1e+04]
  Objective range  [1e+00, 3e+02]
  Bounds range     [1e+00, 1e+00]
  RHS range        [1e+00, 5e+01]
Found heuristic solution: objective 14324.1
Presolve removed 16 rows and 288 columns
Presolve time: 0.07s
Presolved: 988 rows, 17125 columns, 34808 nonzeros

MIP start did not produce a new incumbent solution
MIP start violates constraint R1003 by 1.000000000

Variable types: 0 continuous, 17125 integer (17125 binary)

Root relaxation: objective 2.698645e+03, 229 iterations, 0.00 seconds

    Nodes    |    Current Node    |     Objective Bounds      |     Work
 Expl Unexpl |  Obj  Depth IntInf | Incumbent    BestBd   Gap | It/Node Time

     0     0 2698.64480    0    4 14324.1271 2698.64480  81.2%     -    0s
H    0     0                    3014.0223058 2698.64480  10.5%     -    0s
H    0     0                    2919.1815167 2698.64480  7.55%     -    0s
     0     0 2698.64480    0    4 2919.18152 2698.64480  7.55%     -    0s
     0     0 2698.64480    0    4 2919.18152 2698.64480  7.55%     -    0s
     0     0 2698.64480    0    4 2919.18152 2698.64480  7.55%     -    0s
     0     0 2698.64480    0    4 2919.18152 2698.64480  7.55%     -    0s
     0     0 2698.64480    0    4 2919.18152 2698.64480  7.55%     -    0s
     0     2 2698.64480    0    4 2919.18152 2698.64480  7.55%     -    0s
H   29    28                    2882.4254857 2702.07124  6.26%   9.5    0s
H   32    29                    2876.7634247 2702.07124  6.07%   9.0    0s
H   72    25                    2783.0948897 2708.89020  2.67%   7.1    0s

Cutting planes:
  Cover: 20
  Clique: 19
  MIR: 18

Explored 143 nodes (1750 simplex iterations) in 0.80 seconds
Thread count was 4 (of 4 available processors)

Solution count 6: 2783.09 2876.76 2882.43 ... 14324.1
Pool objective bound 2783.09

Optimal solution found (tolerance 1.00e-04)
Best objective 2.783094889710e+03, best bound 2.783094889710e+03, gap 0.0000%

Gurobi 7.0.2 (win64, Python) logging started 03/11/17 23:51:13

Optimize a model with 960 rows, 17829 columns and 36092 nonzeros
Variable types: 0 continuous, 17829 integer (17829 binary)
Coefficient statistics:
  Matrix range     [1e+00, 1e+04]
  Objective range  [8e-01, 3e+02]
  Bounds range     [1e+00, 1e+00]
  RHS range        [1e+00, 5e+01]
Found heuristic solution: objective 13036.6
Presolve removed 28 rows and 504 columns
Presolve time: 0.08s
Presolved: 932 rows, 17325 columns, 35070 nonzeros
Variable types: 0 continuous, 17325 integer (17325 binary)

Root relaxation: objective 2.437754e+03, 201 iterations, 0.00 seconds

    Nodes    |    Current Node    |     Objective Bounds      |     Work
 Expl Unexpl |  Obj  Depth IntInf | Incumbent    BestBd   Gap | It/Node Time

     0     0 2437.75401    0   13 13036.5612 2437.75401  81.3%     -    0s
H    0     0                    2469.8003404 2437.75401  1.30%     -    0s
     0     0 2437.75401    0    3 2469.80034 2437.75401  1.30%     -    0s
     0     0 2437.75401    0    4 2469.80034 2437.75401  1.30%     -    0s
     0     0 2449.56538    0    6 2469.80034 2449.56538  0.82%     -    0s
     0     0 2449.62905    0    5 2469.80034 2449.62905  0.82%     -    0s
     0     0     cutoff    0      2469.80034 2469.80034  0.00%     -    0s

Cutting planes:
  Cover: 10
  Clique: 10
  MIR: 8

Explored 0 nodes (771 simplex iterations) in 0.42 seconds
Thread count was 4 (of 4 available processors)

Solution count 2: 2469.8 13036.6 
Pool objective bound 2469.8

Optimal solution found (tolerance 1.00e-04)
Best objective 2.469800340375e+03, best bound 2.469800340375e+03, gap 0.0000%
Optimize a model with 1000 rows, 17829 columns and 36212 nonzeros
Variable types: 0 continuous, 17829 integer (17829 binary)
Coefficient statistics:
  Matrix range     [1e+00, 1e+04]
  Objective range  [8e-01, 3e+02]
  Bounds range     [1e+00, 1e+00]
  RHS range        [1e+00, 5e+01]
Found heuristic solution: objective 12646.4
Presolve removed 28 rows and 504 columns
Presolve time: 0.10s
Presolved: 972 rows, 17325 columns, 35190 nonzeros

MIP start did not produce a new incumbent solution
MIP start violates constraint R960 by 1.000000000

Variable types: 0 continuous, 17325 integer (17325 binary)

Root relaxation: objective 2.437754e+03, 237 iterations, 0.00 seconds

    Nodes    |    Current Node    |     Objective Bounds      |     Work
 Expl Unexpl |  Obj  Depth IntInf | Incumbent    BestBd   Gap | It/Node Time

     0     0 2437.75401    0    3 12646.3863 2437.75401  80.7%     -    0s
H    0     0                    2469.8003404 2437.75401  1.30%     -    0s
     0     0 2437.75401    0    3 2469.80034 2437.75401  1.30%     -    0s
     0     0 2437.75401    0    3 2469.80034 2437.75401  1.30%     -    0s
     0     0 2460.39629    0    7 2469.80034 2460.39629  0.38%     -    0s
     0     0     cutoff    0      2469.80034 2469.80034  0.00%     -    0s

Cutting planes:
  Cover: 9
  Clique: 11
  MIR: 7

Explored 0 nodes (610 simplex iterations) in 0.39 seconds
Thread count was 4 (of 4 available processors)

Solution count 2: 2469.8 12646.4 
Pool objective bound 2469.8

Optimal solution found (tolerance 1.00e-04)
Best objective 2.469800340375e+03, best bound 2.469800340375e+03, gap 0.0000%
Optimize a model with 1005 rows, 17829 columns and 36227 nonzeros
Variable types: 0 continuous, 17829 integer (17829 binary)
Coefficient statistics:
  Matrix range     [1e+00, 1e+04]
  Objective range  [8e-01, 3e+02]
  Bounds range     [1e+00, 1e+00]
  RHS range        [1e+00, 5e+01]
Found heuristic solution: objective 12646.4
Presolve removed 28 rows and 504 columns
Presolve time: 0.09s
Presolved: 977 rows, 17325 columns, 35205 nonzeros

MIP start did not produce a new incumbent solution
MIP start violates constraint R1000 by 1.000000000

Variable types: 0 continuous, 17325 integer (17325 binary)

Root relaxation: objective 2.437754e+03, 240 iterations, 0.00 seconds

    Nodes    |    Current Node    |     Objective Bounds      |     Work
 Expl Unexpl |  Obj  Depth IntInf | Incumbent    BestBd   Gap | It/Node Time

     0     0 2437.75401    0    3 12646.3863 2437.75401  80.7%     -    0s
H    0     0                    2469.8003404 2437.75401  1.30%     -    0s
     0     0 2437.75401    0    3 2469.80034 2437.75401  1.30%     -    0s
     0     0 2437.75401    0    3 2469.80034 2437.75401  1.30%     -    0s
     0     0 2448.80195    0    6 2469.80034 2448.80195  0.85%     -    0s
     0     0 2461.63075    0   10 2469.80034 2461.63075  0.33%     -    0s

Cutting planes:
  Cover: 9
  Clique: 9
  MIR: 7

Explored 0 nodes (548 simplex iterations) in 0.37 seconds
Thread count was 4 (of 4 available processors)

Solution count 2: 2469.8 12646.4 
Pool objective bound 2469.8

Optimal solution found (tolerance 1.00e-04)
Best objective 2.469800340375e+03, best bound 2.469800340375e+03, gap 0.0000%

Gurobi 7.0.2 (win64, Python) logging started 03/11/17 23:54:45


Gurobi 7.0.2 (win64, Python) logging started 03/11/17 23:58:54


Gurobi 7.0.2 (win64, Python) logging started 03/12/17 00:00:40


Gurobi 7.0.2 (win64, Python) logging started 03/12/17 00:10:30


Gurobi 7.0.2 (win64, Python) logging started 03/12/17 00:24:36


Gurobi 7.0.2 (win64, Python) logging started 03/12/17 00:26:23


Gurobi 7.0.2 (win64, Python) logging started 03/12/17 00:49:58


Gurobi 7.0.1 (win64, Python) logging started 03/17/17 14:27:08


Gurobi 7.0.1 (win64, Python) logging started 03/17/17 16:12:12


Gurobi 7.0.1 (win64, Python) logging started 03/18/17 18:14:53


Gurobi 7.0.1 (win64, Python) logging started 03/18/17 20:31:32


Gurobi 7.0.1 (win64, Python) logging started 03/19/17 13:54:03

Changed value of parameter LazyConstraints to 1
   Prev: 0  Min: 0  Max: 1  Default: 0
Optimize a model with 25 rows, 300 columns and 600 nonzeros
Variable types: 0 continuous, 300 integer (300 binary)
Coefficient statistics:
  Matrix range     [1e+00, 1e+00]
  Objective range  [2e+00, 1e+02]
  Bounds range     [1e+00, 1e+00]
  RHS range        [2e+00, 2e+00]
Presolve time: 0.03s
Presolved: 25 rows, 300 columns, 600 nonzeros
Variable types: 0 continuous, 300 integer (300 binary)
Found heuristic solution: objective 1593.5901768

Root relaxation: objective 4.738647e+02, 38 iterations, 0.00 seconds

    Nodes    |    Current Node    |     Objective Bounds      |     Work
 Expl Unexpl |  Obj  Depth IntInf | Incumbent    BestBd   Gap | It/Node Time

     0     0  473.86465    0    6 1593.59018  473.86465  70.3%     -    0s
H    0     0                     517.2886077  473.86465  8.39%     -    0s
     0     0  493.69072    0    6  517.28861  493.69072  4.56%     -    0s
     0     0  493.69072    0    6  517.28861  493.69072  4.56%     -    0s
H    0     0                     515.1838760  493.69072  4.17%     -    0s
     0     0  496.97972    0    6  515.18388  496.97972  3.53%     -    0s
     0     0  496.97972    0    6  515.18388  496.97972  3.53%     -    0s
     0     0  503.14267    0    6  515.18388  503.14267  2.34%     -    0s
*    0     0               0     505.5359338  505.53593  0.00%     -    0s

Cutting planes:
  Gomory: 3
  Zero half: 4

Explored 0 nodes (142 simplex iterations) in 0.35 seconds
Thread count was 4 (of 4 available processors)

Solution count 4: 505.536 515.184 517.289 1593.59 
Pool objective bound 505.536

Optimal solution found (tolerance 1.00e-04)
Best objective 5.055359337746e+02, best bound 5.055359337746e+02, gap 0.0000%

Gurobi 7.0.1 (win64, Python) logging started 03/19/17 14:06:30


Gurobi 7.0.1 (win64, Python) logging started 03/21/17 12:08:17

Warning: Gurobi version mismatch between Python 7.0.2 and C library 7.0.1
Parameter OutputFlag unchanged
   Value: 1  Min: 0  Max: 1  Default: 1
Changed value of parameter LazyConstraints to 1
   Prev: 0  Min: 0  Max: 1  Default: 0
Optimize a model with 9005394 rows, 71243 columns and 14821483 nonzeros
Coefficient statistics:
  Matrix range     [1e+00, 1e+00]
  Objective range  [8e-01, 3e+02]
  Bounds range     [1e+00, 1e+00]
  RHS range        [1e+00, 5e+01]

Concurrent LP optimizer: dual simplex and barrier
Showing barrier log only...

Presolve removed 0 rows and 0 columns (presolve time = 7s) ...
Presolve removed 48847 rows and 4448167 columns (presolve time = 14s) ...
Presolve removed 48847 rows and 5815803 columns (presolve time = 18s) ...
Presolve removed 48848 rows and 5815804 columns (presolve time = 24s) ...
Presolve removed 48848 rows and 5840627 columns (presolve time = 25s) ...
Presolve removed 48848 rows and 5841175 columns (presolve time = 31s) ...
Presolve removed 48848 rows and 5841175 columns
Presolve time: 34.73s
Presolved: 22395 rows, 3235462 columns, 6469623 nonzeros

Ordering time: 4.29s

Barrier statistics:
 Dense cols : 1
 Free vars  : 449
 AA' NZ     : 3.541e+06
 Factor NZ  : 9.889e+07 (roughly 2.0 GBytes of memory)
 Factor Ops : 5.709e+11 (roughly 23 seconds per iteration)
 Threads    : 1

Barrier performed 0 iterations in 45.17 seconds
Barrier solve interrupted - model solved by another algorithm


Solved with dual simplex
Solved in 6640 iterations and 46.65 seconds
Optimal objective  2.574282581e+04

Gurobi 7.0.1 (win64, Python) logging started 03/21/17 13:03:53

Warning: Gurobi version mismatch between Python 7.0.2 and C library 7.0.1
Parameter OutputFlag unchanged
   Value: 1  Min: 0  Max: 1  Default: 1
Changed value of parameter LazyConstraints to 1
   Prev: 0  Min: 0  Max: 1  Default: 0
Parameter OutputFlag unchanged
   Value: 1  Min: 0  Max: 1  Default: 1
Changed value of parameter LazyConstraints to 1
   Prev: 0  Min: 0  Max: 1  Default: 0

Gurobi 7.0.1 (win64, Python) logging started 03/21/17 13:05:08

Warning: Gurobi version mismatch between Python 7.0.2 and C library 7.0.1
Parameter OutputFlag unchanged
   Value: 1  Min: 0  Max: 1  Default: 1
Changed value of parameter LazyConstraints to 1
   Prev: 0  Min: 0  Max: 1  Default: 0
Optimize a model with 6332356 rows, 47239 columns and 10533490 nonzeros
Coefficient statistics:
  Matrix range     [1e+00, 1e+00]
  Objective range  [3e-01, 3e+02]
  Bounds range     [1e+00, 1e+00]
  RHS range        [1e+00, 5e+01]

Concurrent LP optimizer: dual simplex and barrier
Showing barrier log only...

Presolve removed 0 rows and 0 columns (presolve time = 7s) ...
Presolve removed 0 rows and 0 columns (presolve time = 10s) ...
Presolve time: 14.00s
Presolved: 47239 rows, 6379595 columns, 10580729 nonzeros

Elapsed ordering time = 5s
Elapsed ordering time = 10s
Elapsed ordering time = 15s
Elapsed ordering time = 20s
Elapsed ordering time = 25s
Elapsed ordering time = 30s
Elapsed ordering time = 35s
Elapsed ordering time = 40s
Elapsed ordering time = 45s
Elapsed ordering time = 50s
Elapsed ordering time = 55s
Ordering time: 55.54s

Barrier statistics:
 Dense cols : 66
 Free vars  : 1299
 AA' NZ     : 5.486e+06
 Factor NZ  : 2.252e+08 (roughly 4.0 GBytes of memory)
 Factor Ops : 2.005e+12 (roughly 110 seconds per iteration)
 Threads    : 1

Barrier performed 0 iterations in 122.56 seconds
Barrier solve interrupted - model solved by another algorithm


Solved with dual simplex
Solved in 21251 iterations and 123.41 seconds
Optimal objective  3.864026842e+04

Gurobi 7.0.2 (win64, Python) logging started 03/22/17 03:25:51


Gurobi 7.0.2 (win64, Python) logging started 03/22/17 05:09:35

Parameter OutputFlag unchanged
   Value: 1  Min: 0  Max: 1  Default: 1
Changed value of parameter LazyConstraints to 1
   Prev: 0  Min: 0  Max: 1  Default: 0
Parameter OutputFlag unchanged
   Value: 1  Min: 0  Max: 1  Default: 1

Gurobi 7.0.2 (win64, Python) logging started 03/22/17 05:10:19


Gurobi 7.0.2 (win64, Python) logging started 03/22/17 12:17:36

Parameter OutputFlag unchanged
   Value: 1  Min: 0  Max: 1  Default: 1
Optimize a model with 33986 rows, 66288 columns and 269814 nonzeros
Coefficient statistics:
  Matrix range     [1e+00, 1e+00]
  Objective range  [1e+01, 5e+02]
  Bounds range     [1e+00, 1e+00]
  RHS range        [1e+00, 5e+01]

Concurrent LP optimizer: dual simplex and barrier
Showing barrier log only...

Presolve removed 33894 rows and 66288 columns
Presolve time: 0.05s

Solved with barrier
Solved in 0 iterations and 0.05 seconds
Infeasible model

Gurobi 7.0.2 (win64, Python) logging started 03/22/17 12:25:06

Parameter OutputFlag unchanged
   Value: 1  Min: 0  Max: 1  Default: 1
Changed value of parameter LazyConstraints to 1
   Prev: 0  Min: 0  Max: 1  Default: 0

Gurobi 7.0.2 (win64, Python) logging started 03/22/17 13:50:37

Parameter OutputFlag unchanged
   Value: 1  Min: 0  Max: 1  Default: 1
Optimize a model with 33986 rows, 62711 columns and 255506 nonzeros
Coefficient statistics:
  Matrix range     [1e+00, 1e+00]
  Objective range  [2e+01, 5e+02]
  Bounds range     [1e+00, 1e+00]
  RHS range        [1e+00, 5e+01]

Concurrent LP optimizer: dual simplex and barrier
Showing barrier log only...

Presolve removed 16365 rows and 0 columns
Presolve time: 0.12s
Presolved: 17621 rows, 62711 columns, 190874 nonzeros

Ordering time: 0.06s

Barrier performed 0 iterations in 0.23 seconds
Barrier solve interrupted - model solved by another algorithm


Solved with dual simplex
Solved in 83 iterations and 0.23 seconds
Optimal objective  2.732663338e+03
Optimize a model with 34030 rows, 62711 columns and 255594 nonzeros
Coefficient statistics:
  Matrix range     [1e+00, 1e+00]
  Objective range  [2e+01, 5e+02]
  Bounds range     [1e+00, 1e+00]
  RHS range        [1e+00, 5e+01]
Iteration    Objective       Primal Inf.    Dual Inf.      Time
       0    2.7326633e+03   4.400000e+01   0.000000e+00      0s
      44    2.7326633e+03   0.000000e+00   0.000000e+00      0s

Solved in 44 iterations and 0.03 seconds
Optimal objective  2.732663338e+03

Gurobi 7.0.2 (win64, Python) logging started 03/22/17 13:55:51


Gurobi 7.0.2 (win64, Python) logging started 03/22/17 13:59:55

Parameter OutputFlag unchanged
   Value: 1  Min: 0  Max: 1  Default: 1
Optimize a model with 33986 rows, 68400 columns and 278262 nonzeros
Coefficient statistics:
  Matrix range     [1e+00, 1e+00]
  Objective range  [1e+01, 5e+02]
  Bounds range     [1e+00, 1e+00]
  RHS range        [1e+00, 5e+01]

Concurrent LP optimizer: dual simplex and barrier
Showing barrier log only...

Presolve removed 16069 rows and 0 columns
Presolve time: 0.16s
Presolved: 17917 rows, 68400 columns, 208237 nonzeros

Ordering time: 0.02s

Barrier performed 0 iterations in 0.24 seconds
Barrier solve interrupted - model solved by another algorithm


Solved with dual simplex
Solved in 80 iterations and 0.25 seconds
Optimal objective  2.512602028e+03
Optimize a model with 34030 rows, 68400 columns and 278350 nonzeros
Coefficient statistics:
  Matrix range     [1e+00, 1e+00]
  Objective range  [1e+01, 5e+02]
  Bounds range     [1e+00, 1e+00]
  RHS range        [1e+00, 5e+01]
Iteration    Objective       Primal Inf.    Dual Inf.      Time
       0    2.5126020e+03   4.400000e+01   0.000000e+00      0s
      41    2.5126020e+03   0.000000e+00   0.000000e+00      0s

Solved in 41 iterations and 0.03 seconds
Optimal objective  2.512602028e+03

Gurobi 7.0.2 (win64, Python) logging started 03/22/17 14:01:45


Gurobi 7.0.2 (win64, Python) logging started 03/24/17 14:25:55

Optimize a model with 1 rows, 2 columns and 2 nonzeros
Variable types: 0 continuous, 2 integer (2 binary)
Coefficient statistics:
  Matrix range     [1e+00, 1e+00]
  Objective range  [0e+00, 0e+00]
  Bounds range     [1e+00, 1e+00]
  RHS range        [5e+00, 5e+00]
Found heuristic solution: objective 0

Explored 0 nodes (0 simplex iterations) in 0.02 seconds
Thread count was 1 (of 4 available processors)

Solution count 1: 0 
Pool objective bound 0

Optimal solution found (tolerance 1.00e-04)
Best objective 0.000000000000e+00, best bound 0.000000000000e+00, gap 0.0000%

Gurobi 7.0.2 (win64, Python) logging started 03/24/17 14:28:27

Optimize a model with 1 rows, 2 columns and 2 nonzeros
Variable types: 0 continuous, 2 integer (2 binary)
Coefficient statistics:
  Matrix range     [1e+00, 1e+00]
  Objective range  [2e+00, 3e+00]
  Bounds range     [1e+00, 1e+00]
  RHS range        [5e+00, 5e+00]
Found heuristic solution: objective 5

Explored 0 nodes (0 simplex iterations) in 0.01 seconds
Thread count was 1 (of 4 available processors)

Solution count 1: 5 
Pool objective bound 5

Optimal solution found (tolerance 1.00e-04)
Best objective 5.000000000000e+00, best bound 5.000000000000e+00, gap 0.0000%

Gurobi 7.0.2 (win64, Python) logging started 03/24/17 14:31:04

Optimize a model with 1 rows, 2 columns and 2 nonzeros
Variable types: 0 continuous, 2 integer (2 binary)
Coefficient statistics:
  Matrix range     [1e+00, 1e+00]
  Objective range  [2e+00, 3e+00]
  Bounds range     [1e+00, 1e+00]
  RHS range        [5e+00, 5e+00]
Found heuristic solution: objective 5

Explored 0 nodes (0 simplex iterations) in 0.00 seconds
Thread count was 1 (of 4 available processors)

Solution count 1: 5 
Pool objective bound 5

Optimal solution found (tolerance 1.00e-04)
Best objective 5.000000000000e+00, best bound 5.000000000000e+00, gap 0.0000%

Gurobi 7.0.2 (win64, Python) logging started 03/24/17 14:34:34

Optimize a model with 1 rows, 2 columns and 2 nonzeros
Variable types: 0 continuous, 2 integer (2 binary)
Coefficient statistics:
  Matrix range     [1e+00, 1e+00]
  Objective range  [2e+00, 3e+00]
  Bounds range     [1e+00, 1e+00]
  RHS range        [5e+00, 5e+00]
Found heuristic solution: objective 5

Explored 0 nodes (0 simplex iterations) in 0.01 seconds
Thread count was 1 (of 4 available processors)

Solution count 1: 5 
Pool objective bound 5

Optimal solution found (tolerance 1.00e-04)
Best objective 5.000000000000e+00, best bound 5.000000000000e+00, gap 0.0000%
Optimize a model with 2 rows, 2 columns and 3 nonzeros
Variable types: 0 continuous, 2 integer (2 binary)
Coefficient statistics:
  Matrix range     [1e+00, 1e+00]
  Objective range  [2e+00, 3e+00]
  Bounds range     [1e+00, 1e+00]
  RHS range        [5e+00, 5e+00]
Found heuristic solution: objective 3
Presolve removed 2 rows and 2 columns
Presolve time: 0.03s
Presolve: All rows and columns removed

Explored 0 nodes (0 simplex iterations) in 0.04 seconds
Thread count was 1 (of 4 available processors)

Solution count 1: 3 
Pool objective bound 3

Optimal solution found (tolerance 1.00e-04)
Best objective 3.000000000000e+00, best bound 3.000000000000e+00, gap 0.0000%

Gurobi 7.0.2 (win64, Python) logging started 03/24/17 14:51:15


Gurobi 7.0.2 (win64, Python) logging started 03/24/17 14:56:36


Gurobi 7.0.2 (win64, Python) logging started 03/24/17 15:00:51


Gurobi 7.0.2 (win64, Python) logging started 03/24/17 15:05:40


Gurobi 7.0.2 (win64, Python) logging started 03/24/17 15:08:49


Gurobi 7.0.2 (win64, Python) logging started 03/24/17 15:12:42


Gurobi 7.0.2 (win64, Python) logging started 03/24/17 15:22:56


Gurobi 7.0.2 (win64, Python) logging started 03/24/17 15:25:09


Gurobi 7.0.2 (win64, Python) logging started 03/24/17 15:28:42


Gurobi 7.0.2 (win64, Python) logging started 03/24/17 15:35:38


Gurobi 7.0.2 (win64, Python) logging started 03/24/17 15:58:02


Gurobi 7.0.2 (win64, Python) logging started 03/24/17 16:07:04


Gurobi 7.0.2 (win64, Python) logging started 03/24/17 16:21:10

